
        $ From http://www.csplib.org/Problems/prob009/data/helmut.pdf
        $ Problem number 65
        $ Sequence length : 25
        language ESSENCE' 1.0
        letting sizemaster be 275
        letting sizes be sequence(2,3,7,13,17,24,25,31,33,34,35,37,41,49,51,53,55,60,68,71,74,81,94,100,107)
        